PtslabBand M-G-K-M
40
Line-mode
reciprocal
 0.5 0.5 0.0 M
 0.0 0.0 0.0 gamma

 0.0 0.0 0.0 gamma
 0.375 0.375 0.375 K

 0.375 0.375 0.375 K
 0.5 0.5 0 M
